NAME : smal10
COMMENT : Clustered random problem (Johnson)
TYPE : TSP
DIMENSION : 10
EDGE_WEIGHT_TYPE : EUC_2D
NODE_COORD_SECTION
 1 98 50
 2 53 -42
 3 57 -43
 4 53 -96
 5 20 21
 6 22 19
 7 69 66
 8 39 10
 9 31 -10
 10 24 75
EOF
